data/lp_files/pEFS/45_3.lp
\ Model foo
\ LP format - for model browsing. Use MPS format to capture full model detail.
Minimize
  z
Subject To
 allocateEach[1]: x[1,1] + x[2,1] + x[3,1] = 1
 allocateEach[2]: x[1,2] + x[2,2] + x[3,2] = 1
 allocateEach[3]: x[1,3] + x[2,3] + x[3,3] = 1
 allocateEach[4]: x[1,4] + x[2,4] + x[3,4] = 1
 allocateEach[5]: x[1,5] + x[2,5] + x[3,5] = 1
 allocateAllCash: cashProportion[1] + cashProportion[2] + cashProportion[3]
   = 1
 findWorstP[1,2]: z + 0.1026799466064278 cashProportion[1]
   - 0.1026799466064278 cashProportion[2] + 0.1994044563096827 x[1,1]
   + 0.4645754184207824 x[1,2] + 0.133945990348085 x[1,3]
   + 0.0922579320258753 x[1,4] + 0.00713625628914673 x[1,5]
   - 0.1994044563096827 x[2,1] - 0.4645754184207824 x[2,2]
   - 0.133945990348085 x[2,3] - 0.0922579320258753 x[2,4]
   - 0.00713625628914673 x[2,5] >= 0
 findWorstP[1,3]: z + 0.1026799466064278 cashProportion[1]
   - 0.1026799466064278 cashProportion[3] + 0.1994044563096827 x[1,1]
   + 0.4645754184207824 x[1,2] + 0.133945990348085 x[1,3]
   + 0.0922579320258753 x[1,4] + 0.00713625628914673 x[1,5]
   - 0.1994044563096827 x[3,1] - 0.4645754184207824 x[3,2]
   - 0.133945990348085 x[3,3] - 0.0922579320258753 x[3,4]
   - 0.00713625628914673 x[3,5] >= 0
 findWorstP[2,1]: z - 0.0553525960367541 cashProportion[1]
   + 0.0553525960367541 cashProportion[2] - 0.2767076275877339 x[1,1]
   - 0.115382486438614 x[1,2] - 0.2023967674083914 x[1,3]
   - 0.1679674526735304 x[1,4] - 0.1821930698549762 x[1,5]
   + 0.2767076275877339 x[2,1] + 0.115382486438614 x[2,2]
   + 0.2023967674083914 x[2,3] + 0.1679674526735304 x[2,4]
   + 0.1821930698549762 x[2,5] >= 0
 findWorstP[2,3]: z + 0.0553525960367541 cashProportion[2]
   - 0.0553525960367541 cashProportion[3] + 0.2767076275877339 x[2,1]
   + 0.115382486438614 x[2,2] + 0.2023967674083914 x[2,3]
   + 0.1679674526735304 x[2,4] + 0.1821930698549762 x[2,5]
   - 0.2767076275877339 x[3,1] - 0.115382486438614 x[3,2]
   - 0.2023967674083914 x[3,3] - 0.1679674526735304 x[3,4]
   - 0.1821930698549762 x[3,5] >= 0
 findWorstP[3,1]: z - 0.064016388195378 cashProportion[1]
   + 0.064016388195378 cashProportion[3] - 0.2250816208949491 x[1,1]
   - 0.2063568273478011 x[1,2] - 0.0129313104154664 x[1,3]
   - 0.2316433006849754 x[1,4] - 0.2599705524614301 x[1,5]
   + 0.2250816208949491 x[3,1] + 0.2063568273478011 x[3,2]
   + 0.0129313104154664 x[3,3] + 0.2316433006849754 x[3,4]
   + 0.2599705524614301 x[3,5] >= 0
 findWorstP[3,2]: z - 0.064016388195378 cashProportion[2]
   + 0.064016388195378 cashProportion[3] - 0.2250816208949491 x[2,1]
   - 0.2063568273478011 x[2,2] - 0.0129313104154664 x[2,3]
   - 0.2316433006849754 x[2,4] - 0.2599705524614301 x[2,5]
   + 0.2250816208949491 x[3,1] + 0.2063568273478011 x[3,2]
   + 0.0129313104154664 x[3,3] + 0.2316433006849754 x[3,4]
   + 0.2599705524614301 x[3,5] >= 0
Bounds
 z <= 1
 -infinity <= cashProportion[1] <= 1
 -infinity <= cashProportion[2] <= 1
 -infinity <= cashProportion[3] <= 1
Binaries
 x[1,1] x[1,2] x[1,3] x[1,4] x[1,5] x[2,1] x[2,2] x[2,3] x[2,4] x[2,5]
 x[3,1] x[3,2] x[3,3] x[3,4] x[3,5]
End
